myproject/instances/20nodes/rnd4_20.tsp
NAME : rnd4_20.tsp
TYPE : TSP
DIMENSION : 20
EDGE_WEIGHT_TYPE : EUC_2D
NODE_COORD_SECTION
1 172 490
2 160 563
3 224 454
4 885 603
5 272 623
6 356 438
7 512 982
8 360 894
9 254 586
10 373 281
11 109 766
12 981 102
13 935 671
14 236 133
15 160 934
16 347 905
17 115 796
18 117 166
19 1 382
20 234 337
