myproject/instances/20nodes/rnd4_20.opt.tour
NAME : rnd4_20.tsp.tsp.optbc.tour
TYPE : TOUR
DIMENSION : 20
TOUR_SECTION
1
6
14
9
5
11
20
16
3
2
7
19
8
15
12
10
17
18
4
13
-1